% File represents an instance of a Composite Structure problem to be solved by a CP framework
% Created on 2025-03-26 10:41:55.922
T = 54;
n = 36;
m = 60;
edges = [(2, 1),
(8, 7),
(13, 14),
(19, 20),
(25, 26),
(31, 32),
(3, 2),
(9, 8),
(15, 14),
(21, 20),
(26, 27),
(32, 33),
(3, 4),
(10, 9),
(16, 15),
(22, 21),
(28, 27),
(34, 33),
(5, 4),
(11, 10),
(17, 16),
(23, 22),
(29, 28),
(34, 35),
(5, 6),
(12, 11),
(18, 17),
(24, 23),
(30, 29),
(36, 35),
(1, 7),
(13, 7),
(13, 19),
(25, 19),
(31, 25),
(2, 8),
(8, 14),
(14, 20),
(26, 20),
(32, 26),
(3, 9),
(9, 15),
(15, 21),
(21, 27),
(33, 27),
(4, 10),
(10, 16),
(16, 22),
(22, 28),
(34, 28),
(5, 11),
(11, 17),
(17, 23),
(23, 29),
(29, 35),
(12, 6),
(12, 18),
(18, 24),
(24, 30),
(30, 36)];
counts = [|6, 16, 6, 10,
|6, 20, 6, 12,
|6, 20, 6, 16,
|6, 18, 6, 16,
|6, 22, 6, 18,
|6, 20, 6, 18,
|6, 10, 6, 10,
|6, 16, 6, 10,
|6, 18, 6, 12,
|6, 18, 6, 14,
|6, 20, 6, 18,
|6, 24, 6, 18,
|8, 10, 8, 10,
|6, 10, 6, 10,
|6, 14, 6, 10,
|6, 14, 6, 14,
|6, 18, 6, 14,
|6, 22, 6, 14,
|8, 10, 8, 6,
|6, 8, 6, 6,
|6, 12, 6, 8,
|6, 12, 6, 10,
|6, 18, 6, 10,
|6, 20, 6, 14,
|10, 10, 10, 6,
|8, 10, 8, 6,
|6, 10, 6, 6,
|6, 12, 6, 8,
|6, 14, 6, 10,
|6, 16, 6, 14,
|10, 10, 10, 8,
|8, 10, 8, 8,
|8, 10, 8, 6,
|8, 14, 8, 8,
|6, 12, 6, 8,
|6, 12, 6, 12|];
